c Sudoku solution
p cnf 729 0
136 0
185 0
211 0
276 0
289 0
292 0
333 0
342 0
461 0
513 0
626 0
631 0
643 0
688 0
694 0
766 0
356 0
778 0
834 0
848 0
857 0
865 0
964 0
784 0
973 0
823 0
753 0
952 0
151 0
263 0
193 0
398 0
483 0
999 0
795 0
987 0
819 0
916 0
749 0
941 0
721 0
381 0
497 0
446 0
439 0
732 0
717 0
537 0
667 0
562 0
586 0
591 0
369 0
168 0
129 0
112 0
615 0
422 0
475 0
672 0
579 0
659 0
314 0
377 0
174 0
147 0
227 0
325 0
238 0
418 0
524 0
454 0
545 0
558 0
928 0
935 0
244 0
255 0
871 0
896 0
882 0
